300
200 200
1 140 52
2 140 631
3 140 566
4 139 972
5 139 704
6 139 24
7 139 82
8 139 677
9 138 432
10 138 196
11 138 164
12 138 577
13 137 724
14 137 525
15 137 87
16 136 856
17 136 214
18 136 84
19 136 816
20 136 899
21 136 412
22 135 735
23 135 771
24 135 74
25 134 364
26 134 586
27 134 406
28 134 769
29 133 493
30 133 852
31 133 303
32 132 972
33 132 960
34 132 667
35 131 361
36 131 854
37 131 241
38 129 672
39 128 313
40 127 840
41 126 53
42 126 64
43 126 921
44 126 848
45 126 287
46 125 797
47 125 566
48 124 726
49 124 173
50 124 195
51 124 550
52 124 95
53 124 422
54 124 939
55 123 41
56 123 263
57 123 897
58 122 48
59 122 227
60 122 738
61 122 853
62 121 805
63 121 402
64 121 399
65 121 576
66 121 119
67 121 416
68 120 578
69 120 862
70 119 276
71 119 35
72 119 399
73 119 266
74 119 450
75 117 482
76 117 802
77 116 708
78 116 505
79 115 947
80 115 801
81 114 463
82 114 832
83 113 967
84 113 702
85 111 451
86 111 991
87 111 23
88 111 17
89 110 241
90 110 76
91 110 233
92 109 392
93 109 311
94 108 535
95 108 935
96 108 596
97 108 875
98 107 598
99 107 796
100 107 676
101 107 959
102 106 276
103 105 722
104 105 16
105 105 588
106 104 581
107 104 381
108 104 388
109 103 389
110 103 807
111 103 122
112 103 946
113 103 161
114 102 58
115 101 954
116 100 985
117 100 304
118 100 954
119 99 821
120 99 46
121 99 911
122 98 525
123 98 496
124 98 617
125 98 282
126 97 794
127 97 586
128 97 673
129 96 59
130 96 161
131 95 902
132 95 11
133 95 298
134 94 267
135 94 535
136 94 563
137 93 802
138 93 901
139 93 813
140 93 827
141 92 178
142 92 3
143 92 189
144 92 824
145 91 19
146 91 183
147 91 21
148 91 381
149 90 40
150 89 15
151 89 968
152 89 802
153 89 881
154 88 605
155 88 458
156 87 21
157 87 845
158 87 83
159 86 355
160 85 737
161 84 389
162 84 150
163 84 920
164 83 274
165 83 773
166 83 107
167 83 564
168 82 400
169 82 607
170 82 679
171 82 35
172 82 931
173 81 630
174 81 920
175 81 186
176 81 746
177 81 412
178 80 405
179 80 869
180 80 983
181 79 119
182 79 103
183 78 197
184 78 43
185 78 349
186 77 271
187 77 747
188 77 707
189 77 973
190 77 398
191 77 342
192 76 741
193 76 246
194 76 276
195 76 380
196 75 617
197 75 202
198 75 672
199 75 239
200 74 426
201 74 140
202 74 92
203 73 312
204 72 957
205 72 868
206 71 498
207 71 345
208 70 182
209 70 241
210 70 507
211 69 920
212 69 240
213 69 940
214 69 919
215 68 305
216 67 572
217 67 741
218 66 987
219 66 186
220 66 558
221 65 287
222 65 438
223 65 484
224 64 856
225 64 417
226 64 377
227 64 806
228 63 755
229 63 41
230 63 912
231 62 41
232 62 964
233 62 526
234 62 152
235 62 728
236 61 282
237 61 510
238 61 582
239 61 347
240 61 486
241 61 828
242 59 781
243 59 435
244 58 200
245 57 912
246 57 733
247 57 482
248 56 32
249 56 28
250 55 293
251 55 714
252 55 122
253 55 59
254 55 695
255 54 578
256 54 308
257 53 42
258 53 958
259 53 31
260 53 805
261 52 741
262 52 181
263 52 35
264 52 848
265 52 368
266 51 168
267 51 568
268 51 59
269 51 167
270 50 837
271 50 34
272 50 822
273 50 390
274 49 775
275 49 820
276 48 213
277 48 545
278 47 909
279 47 949
280 47 947
281 46 128
282 46 524
283 45 427
284 45 994
285 45 599
286 45 312
287 45 765
288 44 999
289 44 436
290 44 331
291 43 1000
292 42 699
293 42 680
294 41 179
295 41 394
296 41 423
297 40 537
298 40 775
299 40 881
300 40 366
